100
32
20
13
2
1
20
2
9
19
25
9
9
8
14
11
13
11
4
18
1
3
2
2
17
1
2
17
1
2
2
5
3
1
1
2
1
17
4
6
1
1
1
2
1
1
7
3
1
2
1
1
3
2
2
1
1
1
17
3
1
1
2
1
19
2
18
7
1
1
1
1
1
17
3
2
1
7
1
2
4
2
1
18
2
2
2
1
2
20
1
3
1
2
1
3
1
1
3
1
1
1